(set-info :smt-lib-version 2.0)
(set-logic ALL)
; variable declaration
(declare-const L0x7fffffffd9f8_1 (_ BitVec 64))
(declare-const r14_2 (_ BitVec 64))
(declare-const r8_13 (_ BitVec 64))
(declare-const r8_12 (_ BitVec 64))
(declare-const r8_11 (_ BitVec 64))
(declare-const c3_1 (_ BitVec 64))
(declare-const r13_13 (_ BitVec 64))
(declare-const r13_12 (_ BitVec 64))
(declare-const r13_11 (_ BitVec 64))
(declare-const L0x7fffffffd9f0_1 (_ BitVec 64))
(declare-const a2_0 (_ BitVec 64))
(declare-const a0_0 (_ BitVec 64))
(declare-const rcx_26 (_ BitVec 64))
(declare-const carry_44 (_ BitVec 1))
(declare-const carry_43 (_ BitVec 1))
(declare-const carry_42 (_ BitVec 1))
(declare-const carry_41 (_ BitVec 1))
(declare-const carry_40 (_ BitVec 1))
(declare-const carry_39 (_ BitVec 1))
(declare-const m1_0 (_ BitVec 64))
(declare-const overflow_20 (_ BitVec 1))
(declare-const r10_13 (_ BitVec 64))
(declare-const r10_12 (_ BitVec 64))
(declare-const m3_0 (_ BitVec 64))
(declare-const eax_1 (_ BitVec 64))
(declare-const rdx_9 (_ BitVec 64))
(declare-const r10o_0 (_ BitVec 64))
(declare-const a1_0 (_ BitVec 64))
(declare-const b1_0 (_ BitVec 64))
(declare-const r8o_0 (_ BitVec 64))
(declare-const b2_0 (_ BitVec 64))
(declare-const b3_0 (_ BitVec 64))
(declare-const m0_0 (_ BitVec 64))
(declare-const r9_14 (_ BitVec 64))
(declare-const r9_13 (_ BitVec 64))
(declare-const r9_12 (_ BitVec 64))
(declare-const r12o_0 (_ BitVec 64))
(declare-const rbx_1 (_ BitVec 64))
(declare-const r12_15 (_ BitVec 64))
(declare-const r12_14 (_ BitVec 64))
(declare-const r12_13 (_ BitVec 64))
(declare-const b0_0 (_ BitVec 64))
(declare-const c1_1 (_ BitVec 64))
(declare-const L0x7fffffffda00_1 (_ BitVec 64))
(declare-const m2_0 (_ BitVec 64))
(declare-const r9o_0 (_ BitVec 64))
(declare-const c2_1 (_ BitVec 64))
(declare-const r13o_0 (_ BitVec 64))
(declare-const a3_0 (_ BitVec 64))
(declare-const r15_1 (_ BitVec 64))
(declare-const L0x7fffffffda08_1 (_ BitVec 64))
(declare-const c0_1 (_ BitVec 64))
(declare-const rbp_23 (_ BitVec 64))
; range precondition and program 
(assert (and (and (and (and (and (and (and (and (= m0_0 #xFFFFFFFFFFFFFFFF) (= m1_0 #x00000000FFFFFFFF)) (= m2_0 #x0000000000000000)) (= m3_0 #xFFFFFFFF00000001)) (= r14_2 #x00000000FFFFFFFF)) (= r15_1 #xFFFFFFFF00000001)) (bvult (bvadd (bvmul ((_ zero_extend 256) r12_13) #x00000000000000000000000000000000000000000000000000000000000000000000000000000001) (bvadd (bvmul ((_ zero_extend 256) r13_11) #x00000000000000000000000000000000000000000000000000000000000000010000000000000000) (bvadd (bvmul ((_ zero_extend 256) r8_11) #x00000000000000000000000000000000000000000000000100000000000000000000000000000000) (bvadd (bvmul ((_ zero_extend 256) r9_12) #x00000000000000000000000000000001000000000000000000000000000000000000000000000000) (bvmul ((_ zero_extend 256) r10_12) #x00000000000000010000000000000000000000000000000000000000000000000000000000000000))))) (bvmul #x00000000000000000000000000000000000000000000000000000000000000000000000000000002 (bvadd (bvmul ((_ zero_extend 256) m0_0) #x00000000000000000000000000000000000000000000000000000000000000000000000000000001) (bvadd (bvmul ((_ zero_extend 256) m1_0) #x00000000000000000000000000000000000000000000000000000000000000010000000000000000) (bvadd (bvmul ((_ zero_extend 256) m2_0) #x00000000000000000000000000000000000000000000000100000000000000000000000000000000) (bvadd (bvmul ((_ zero_extend 256) m3_0) #x00000000000000000000000000000001000000000000000000000000000000000000000000000000) (bvmul ((_ zero_extend 256) #x0000000000000000) #x00000000000000010000000000000000000000000000000000000000000000000000000000000000)))))))) (= r12_13 rbx_1)) (= r13_11 rdx_9)))
(assert (and (and (and (and (= r12o_0 r12_13) (= r13o_0 r13_11)) (= r8o_0 r8_11)) (= r9o_0 r9_12)) (= r10o_0 r10_12)))
(assert (= eax_1 #x0000000000000000))
(assert (= carry_39 #b0))
(assert (= overflow_20 #b0))
(assert (= rcx_26 r8_11))
(assert (and (= carry_40 ((_ extract 64 64) (bvsub ((_ zero_extend 1) r12_13) (bvadd ((_ zero_extend 1) #xFFFFFFFFFFFFFFFF) ((_ zero_extend 64) carry_39))))) (= r12_14 ((_ extract 63 0) (bvsub ((_ zero_extend 1) r12_13) (bvadd ((_ zero_extend 1) #xFFFFFFFFFFFFFFFF) ((_ zero_extend 64) carry_39)))))))
(assert (and (= carry_41 ((_ extract 64 64) (bvsub ((_ zero_extend 1) r13_11) (bvadd ((_ zero_extend 1) r14_2) ((_ zero_extend 64) carry_40))))) (= r13_12 ((_ extract 63 0) (bvsub ((_ zero_extend 1) r13_11) (bvadd ((_ zero_extend 1) r14_2) ((_ zero_extend 64) carry_40)))))))
(assert (and (= carry_42 ((_ extract 64 64) (bvsub ((_ zero_extend 1) r8_11) (bvadd ((_ zero_extend 1) #x0000000000000000) ((_ zero_extend 64) carry_41))))) (= r8_12 ((_ extract 63 0) (bvsub ((_ zero_extend 1) r8_11) (bvadd ((_ zero_extend 1) #x0000000000000000) ((_ zero_extend 64) carry_41)))))))
(assert (= rbp_23 r9_12))
(assert (and (= carry_43 ((_ extract 64 64) (bvsub ((_ zero_extend 1) r9_12) (bvadd ((_ zero_extend 1) r15_1) ((_ zero_extend 64) carry_42))))) (= r9_13 ((_ extract 63 0) (bvsub ((_ zero_extend 1) r9_12) (bvadd ((_ zero_extend 1) r15_1) ((_ zero_extend 64) carry_42)))))))
(assert (and (= carry_44 ((_ extract 64 64) (bvsub ((_ zero_extend 1) r10_12) (bvadd ((_ zero_extend 1) #x0000000000000000) ((_ zero_extend 64) carry_43))))) (= r10_13 ((_ extract 63 0) (bvsub ((_ zero_extend 1) r10_12) (bvadd ((_ zero_extend 1) #x0000000000000000) ((_ zero_extend 64) carry_43)))))))
(assert (= r12_15 (ite (= carry_44 #b1) rbx_1 r12_14)))
(assert (= r13_13 (ite (= carry_44 #b1) rdx_9 r13_12)))
(assert (= L0x7fffffffd9f0_1 r12_15))
(assert (= r8_13 (ite (= carry_44 #b1) rcx_26 r8_12)))
(assert (= L0x7fffffffd9f8_1 r13_13))
(assert (= r9_14 (ite (= carry_44 #b1) rbp_23 r9_13)))
(assert true)
(assert true)
(assert (= L0x7fffffffda00_1 r8_13))
(assert (= L0x7fffffffda08_1 r9_14))
(assert (= c0_1 L0x7fffffffd9f0_1))
(assert (= c1_1 L0x7fffffffd9f8_1))
(assert (= c2_1 L0x7fffffffda00_1))
(assert (= c3_1 L0x7fffffffda08_1))
; algebraic precondition and program
(assert (eqmodP1 (PAdd (PAdd (PAdd (PAdd (PAdd (PAdd (PAdd (PAdd (PConst 0) (PMul (PConst 0) (PPow (PConst 2) 64))) (PMul (PConst 0) (PPow (PConst 2) 128))) (PMul (PConst 0) (PPow (PConst 2) 192))) (PMul (PConst (bv2nat r12_13)) (PPow (PConst 2) 256))) (PMul (PConst (bv2nat r13_11)) (PPow (PConst 2) 320))) (PMul (PConst (bv2nat r8_11)) (PPow (PConst 2) 384))) (PMul (PConst (bv2nat r9_12)) (PPow (PConst 2) 448))) (PMul (PConst (bv2nat r10_12)) (PPow (PConst 2) 512))) (PMul (PAdd (PAdd (PAdd (PConst (bv2nat a0_0)) (PMul (PConst (bv2nat a1_0)) (PPow (PConst 2) 64))) (PMul (PConst (bv2nat a2_0)) (PPow (PConst 2) 128))) (PMul (PConst (bv2nat a3_0)) (PPow (PConst 2) 192))) (PAdd (PAdd (PAdd (PConst (bv2nat b0_0)) (PMul (PConst (bv2nat b1_0)) (PPow (PConst 2) 64))) (PMul (PConst (bv2nat b2_0)) (PPow (PConst 2) 128))) (PMul (PConst (bv2nat b3_0)) (PPow (PConst 2) 192)))) (PAdd (PAdd (PAdd (PConst (bv2nat m0_0)) (PMul (PConst (bv2nat m1_0)) (PPow (PConst 2) 64))) (PMul (PConst (bv2nat m2_0)) (PPow (PConst 2) 128))) (PMul (PConst (bv2nat m3_0)) (PPow (PConst 2) 192)))))
(assert (eqP (PConst (bv2nat r12o_0)) (PConst (bv2nat r12_13))))
(assert (eqP (PConst (bv2nat r13o_0)) (PConst (bv2nat r13_11))))
(assert (eqP (PConst (bv2nat r8o_0)) (PConst (bv2nat r8_11))))
(assert (eqP (PConst (bv2nat r9o_0)) (PConst (bv2nat r9_12))))
(assert (eqP (PConst (bv2nat r10o_0)) (PConst (bv2nat r10_12))))
(assert (eqP (PConst (bv2nat eax_1)) (PConst 0)))
(assert (eqP (PConst (bv2nat carry_39)) (PConst 0)))
(assert (eqP (PConst (bv2nat overflow_20)) (PConst 0)))
(assert (eqP (PConst (bv2nat rcx_26)) (PConst (bv2nat r8_11))))
(assert (eqP (PAdd (PConst (bv2nat r12_14)) (PMul (PNeg (PConst (bv2nat carry_40))) (PConst 18446744073709551616))) (PSub (PSub (PConst (bv2nat r12_13)) (PConst 18446744073709551615)) (PConst (bv2nat carry_39)))))
(assert (eqP (PAdd (PConst (bv2nat r13_12)) (PMul (PNeg (PConst (bv2nat carry_41))) (PConst 18446744073709551616))) (PSub (PSub (PConst (bv2nat r13_11)) (PConst (bv2nat r14_2))) (PConst (bv2nat carry_40)))))
(assert (eqP (PAdd (PConst (bv2nat r8_12)) (PMul (PNeg (PConst (bv2nat carry_42))) (PConst 18446744073709551616))) (PSub (PSub (PConst (bv2nat r8_11)) (PConst 0)) (PConst (bv2nat carry_41)))))
(assert (eqP (PConst (bv2nat rbp_23)) (PConst (bv2nat r9_12))))
(assert (eqP (PAdd (PConst (bv2nat r9_13)) (PMul (PNeg (PConst (bv2nat carry_43))) (PConst 18446744073709551616))) (PSub (PSub (PConst (bv2nat r9_12)) (PConst (bv2nat r15_1))) (PConst (bv2nat carry_42)))))
(assert (eqP (PAdd (PConst (bv2nat r10_13)) (PMul (PNeg (PConst (bv2nat carry_44))) (PConst 18446744073709551616))) (PSub (PSub (PConst (bv2nat r10_12)) (PConst 0)) (PConst (bv2nat carry_43)))))
(assert (eqP (PConst (bv2nat r12_15)) (PAdd (PMul (PConst (bv2nat carry_44)) (PConst (bv2nat rbx_1))) (PMul (PSub (PConst 1) (PConst (bv2nat carry_44))) (PConst (bv2nat r12_14))))))
(assert (eqP (PConst (bv2nat r13_13)) (PAdd (PMul (PConst (bv2nat carry_44)) (PConst (bv2nat rdx_9))) (PMul (PSub (PConst 1) (PConst (bv2nat carry_44))) (PConst (bv2nat r13_12))))))
(assert (eqP (PConst (bv2nat L0x7fffffffd9f0_1)) (PConst (bv2nat r12_15))))
(assert (eqP (PConst (bv2nat r8_13)) (PAdd (PMul (PConst (bv2nat carry_44)) (PConst (bv2nat rcx_26))) (PMul (PSub (PConst 1) (PConst (bv2nat carry_44))) (PConst (bv2nat r8_12))))))
(assert (eqP (PConst (bv2nat L0x7fffffffd9f8_1)) (PConst (bv2nat r13_13))))
(assert (eqP (PConst (bv2nat r9_14)) (PAdd (PMul (PConst (bv2nat carry_44)) (PConst (bv2nat rbp_23))) (PMul (PSub (PConst 1) (PConst (bv2nat carry_44))) (PConst (bv2nat r9_13))))))
(assert (eqmodP1 (PAdd (PAdd (PAdd (PAdd (PConst (bv2nat r12_15)) (PMul (PConst (bv2nat r13_13)) (PPow (PConst 2) 64))) (PMul (PConst (bv2nat r8_13)) (PPow (PConst 2) 128))) (PMul (PConst (bv2nat r9_14)) (PPow (PConst 2) 192))) (PMul (PConst 0) (PPow (PConst 2) 256))) (PAdd (PAdd (PAdd (PAdd (PConst (bv2nat r12o_0)) (PMul (PConst (bv2nat r13o_0)) (PPow (PConst 2) 64))) (PMul (PConst (bv2nat r8o_0)) (PPow (PConst 2) 128))) (PMul (PConst (bv2nat r9o_0)) (PPow (PConst 2) 192))) (PMul (PConst (bv2nat r10o_0)) (PPow (PConst 2) 256))) (PAdd (PAdd (PAdd (PAdd (PConst (bv2nat m0_0)) (PMul (PConst (bv2nat m1_0)) (PPow (PConst 2) 64))) (PMul (PConst (bv2nat m2_0)) (PPow (PConst 2) 128))) (PMul (PConst (bv2nat m3_0)) (PPow (PConst 2) 192))) (PMul (PConst 0) (PPow (PConst 2) 256)))))
(assert (eqP (PConst (bv2nat L0x7fffffffda00_1)) (PConst (bv2nat r8_13))))
(assert (eqP (PConst (bv2nat L0x7fffffffda08_1)) (PConst (bv2nat r9_14))))
(assert (eqP (PConst (bv2nat c0_1)) (PConst (bv2nat L0x7fffffffd9f0_1))))
(assert (eqP (PConst (bv2nat c1_1)) (PConst (bv2nat L0x7fffffffd9f8_1))))
(assert (eqP (PConst (bv2nat c2_1)) (PConst (bv2nat L0x7fffffffda00_1))))
(assert (eqP (PConst (bv2nat c3_1)) (PConst (bv2nat L0x7fffffffda08_1))))
; postcondition
(assert (not (and (bvult (bvadd (bvmul ((_ zero_extend 192) c0_1) #x0000000000000000000000000000000000000000000000000000000000000001) (bvadd (bvmul ((_ zero_extend 192) c1_1) #x0000000000000000000000000000000000000000000000010000000000000000) (bvadd (bvmul ((_ zero_extend 192) c2_1) #x0000000000000000000000000000000100000000000000000000000000000000) (bvmul ((_ zero_extend 192) c3_1) #x0000000000000001000000000000000000000000000000000000000000000000)))) (bvadd (bvmul ((_ zero_extend 192) m0_0) #x0000000000000000000000000000000000000000000000000000000000000001) (bvadd (bvmul ((_ zero_extend 192) m1_0) #x0000000000000000000000000000000000000000000000010000000000000000) (bvadd (bvmul ((_ zero_extend 192) m2_0) #x0000000000000000000000000000000100000000000000000000000000000000) (bvmul ((_ zero_extend 192) m3_0) #x0000000000000001000000000000000000000000000000000000000000000000))))) (eqmodP1 (PAdd (PAdd (PAdd (PAdd (PAdd (PAdd (PAdd (PConst 0) (PMul (PConst 0) (PPow (PConst 2) 64))) (PMul (PConst 0) (PPow (PConst 2) 128))) (PMul (PConst 0) (PPow (PConst 2) 192))) (PMul (PConst (bv2nat c0_1)) (PPow (PConst 2) 256))) (PMul (PConst (bv2nat c1_1)) (PPow (PConst 2) 320))) (PMul (PConst (bv2nat c2_1)) (PPow (PConst 2) 384))) (PMul (PConst (bv2nat c3_1)) (PPow (PConst 2) 448))) (PMul (PAdd (PAdd (PAdd (PConst (bv2nat a0_0)) (PMul (PConst (bv2nat a1_0)) (PPow (PConst 2) 64))) (PMul (PConst (bv2nat a2_0)) (PPow (PConst 2) 128))) (PMul (PConst (bv2nat a3_0)) (PPow (PConst 2) 192))) (PAdd (PAdd (PAdd (PConst (bv2nat b0_0)) (PMul (PConst (bv2nat b1_0)) (PPow (PConst 2) 64))) (PMul (PConst (bv2nat b2_0)) (PPow (PConst 2) 128))) (PMul (PConst (bv2nat b3_0)) (PPow (PConst 2) 192)))) (PAdd (PAdd (PAdd (PConst (bv2nat m0_0)) (PMul (PConst (bv2nat m1_0)) (PPow (PConst 2) 64))) (PMul (PConst (bv2nat m2_0)) (PPow (PConst 2) 128))) (PMul (PConst (bv2nat m3_0)) (PPow (PConst 2) 192)))))))
; check
(check-sat)
(exit)
